solution status: gap limit reached
objective value:                          28503.54076
y#1                                                 1 	(obj:5700)
y#2                                                 1 	(obj:5700)
y#3                                                 1 	(obj:5700)
y#4                                                 1 	(obj:5700)
y#5                                                 1 	(obj:5700)
x#1#3                                               1 	(obj:0.07429)
x#2#3                                               1 	(obj:0.1649)
x#3#3                                               1 	(obj:0.10115)
x#4#3                                               1 	(obj:0.0595)
x#5#4                                               1 	(obj:0.16813)
x#6#3                                               1 	(obj:0.10251)
x#7#3                                               1 	(obj:0.10676)
x#8#3                                               1 	(obj:0.08092)
x#9#1                                               1 	(obj:0.16099)
x#10#1                                              1 	(obj:0.09282)
x#11#4                                              1 	(obj:0.11509)
x#12#4                                              1 	(obj:0.07718)
x#13#4                                              1 	(obj:0.05457)
x#14#1                                              1 	(obj:0.03009)
x#15#1                                              1 	(obj:0.06613)
x#16#4                                              1 	(obj:0.01394)
x#17#1                                              1 	(obj:0.08092)
x#18#1                                              1 	(obj:0.08364)
x#19#5                                              1 	(obj:0.08143)
x#20#4                                              1 	(obj:0.11424)
x#21#3                                              1 	(obj:0.02703)
x#22#4                                              1 	(obj:0.10217)
x#23#1                                              1 	(obj:0.02754)
x#24#4                                              1 	(obj:0.07412)
x#25#5                                              1 	(obj:0.0969)
x#26#4                                              1 	(obj:0.05865)
x#27#5                                              1 	(obj:0.08925)
x#28#1                                              1 	(obj:0.07072)
x#29#4                                              1 	(obj:0.07854)
x#30#5                                              1 	(obj:0.06239)
x#31#1                                              1 	(obj:0.05202)
x#32#2                                              1 	(obj:0.01071)
x#33#2                                              1 	(obj:0.04981)
x#34#5                                              1 	(obj:0.03553)
x#35#3                                              1 	(obj:0.00935)
x#36#3                                              1 	(obj:0.00782)
x#37#2                                              1 	(obj:0.02057)
x#38#2                                              1 	(obj:0.0527)
x#39#2                                              1 	(obj:0.05338)
x#40#5                                              1 	(obj:0.06953)
x#41#5                                              1 	(obj:0.03315)
x#42#1                                              1 	(obj:0.01309)
x#43#2                                              1 	(obj:0.05474)
x#44#5                                              1 	(obj:0.0221)
x#45#2                                              1 	(obj:0.07905)
x#46#2                                              1 	(obj:0.07395)
x#47#5                                              1 	(obj:0.04216)
x#48#2                                              1 	(obj:0.03026)
x#49#2                                              1 	(obj:0.06188)
x#50#1                                              1 	(obj:0.02567)
x#51#5                                              1 	(obj:0.05474)
x#52#2                                              1 	(obj:0.06154)
x#53#3                                              1 	(obj:0.03179)
x#54#5                                              1 	(obj:0.01224)
x#55#3                                              1 	(obj:0.01802)
x#56#4                                              1 	(obj:0.04845)
